Version identifier: 22.1.1.0 | 2022-11-28 | 9160aff4d
CPXPARAM_Threads                                 1
CPXPARAM_MIP_Strategy_VariableSelect             3
CPXPARAM_TimeLimit                               599.99893022499998
Found incumbent of value 0.000000 after 0.00 sec. (0.28 ticks)

Root node processing (before b&c):
  Real time             =    0.00 sec. (0.32 ticks)
Sequential b&c:
  Real time             =    0.00 sec. (0.00 ticks)
                          ------------
Total (root+branch&cut) =    0.00 sec. (0.32 ticks)
Version identifier: 22.1.1.0 | 2022-11-28 | 9160aff4d
CPXPARAM_Threads                                 1
CPXPARAM_MIP_Strategy_VariableSelect             3
CPXPARAM_TimeLimit                               599.99059521900006
Found incumbent of value 0.000000 after 0.00 sec. (0.42 ticks)

Root node processing (before b&c):
  Real time             =    0.00 sec. (0.47 ticks)
Sequential b&c:
  Real time             =    0.00 sec. (0.00 ticks)
                          ------------
Total (root+branch&cut) =    0.00 sec. (0.47 ticks)
Version identifier: 22.1.1.0 | 2022-11-28 | 9160aff4d
CPXPARAM_Threads                                 1
CPXPARAM_MIP_Strategy_VariableSelect             3
CPXPARAM_TimeLimit                               599.98014083500004
Found incumbent of value 0.000000 after 0.00 sec. (0.48 ticks)

Root node processing (before b&c):
  Real time             =    0.00 sec. (0.55 ticks)
Sequential b&c:
  Real time             =    0.00 sec. (0.00 ticks)
                          ------------
Total (root+branch&cut) =    0.00 sec. (0.55 ticks)
Version identifier: 22.1.1.0 | 2022-11-28 | 9160aff4d
CPXPARAM_Threads                                 1
CPXPARAM_MIP_Strategy_VariableSelect             3
CPXPARAM_TimeLimit                               599.96801223399996
Found incumbent of value 0.000000 after 0.00 sec. (0.52 ticks)

Root node processing (before b&c):
  Real time             =    0.00 sec. (0.59 ticks)
Sequential b&c:
  Real time             =    0.00 sec. (0.00 ticks)
                          ------------
Total (root+branch&cut) =    0.00 sec. (0.59 ticks)
Version identifier: 22.1.1.0 | 2022-11-28 | 9160aff4d
CPXPARAM_Threads                                 1
CPXPARAM_MIP_Strategy_VariableSelect             3
CPXPARAM_TimeLimit                               599.95498040099994
Tried aggregator 1 time.
MIP Presolve eliminated 703 rows and 1384 columns.
Reduced MIP has 1385 rows, 2768 columns, and 17216 nonzeros.
Reduced MIP has 2768 binaries, 0 generals, 0 SOSs, and 0 indicators.
Presolve time = 0.01 sec. (9.73 ticks)
Probing time = 0.00 sec. (2.69 ticks)
Tried aggregator 1 time.
Detecting symmetries...
Reduced MIP has 1385 rows, 2768 columns, and 17216 nonzeros.
Reduced MIP has 2768 binaries, 0 generals, 0 SOSs, and 0 indicators.
Presolve time = 0.01 sec. (10.06 ticks)
Probing time = 0.00 sec. (2.69 ticks)
Clique table members: 690.
MIP emphasis: balance optimality and feasibility.
MIP search method: dynamic search.
Parallel mode: none, using 1 thread.
Root relaxation solution time = 0.01 sec. (17.47 ticks)

        Nodes                                         Cuts/
   Node  Left     Objective  IInf  Best Integer    Best Bound    ItCnt     Gap

      0     0        0.0000    50                      0.0000      457         
*     0+    0                            0.0000        0.0000             0.00%
      0     0        cutoff              0.0000        0.0000      457    0.00%
Elapsed time = 0.05 sec. (68.74 ticks, tree = 0.01 MB, solutions = 1)

Root node processing (before b&c):
  Real time             =    0.05 sec. (68.86 ticks)
Sequential b&c:
  Real time             =    0.00 sec. (0.00 ticks)
                          ------------
Total (root+branch&cut) =    0.05 sec. (68.86 ticks)
Version identifier: 22.1.1.0 | 2022-11-28 | 9160aff4d
CPXPARAM_Threads                                 1
CPXPARAM_MIP_Strategy_VariableSelect             3
CPXPARAM_TimeLimit                               599.88721066599999
Tried aggregator 1 time.
MIP Presolve eliminated 715 rows and 1408 columns.
Reduced MIP has 1409 rows, 2816 columns, and 17516 nonzeros.
Reduced MIP has 2816 binaries, 0 generals, 0 SOSs, and 0 indicators.
Presolve time = 0.01 sec. (9.90 ticks)
Probing time = 0.00 sec. (2.70 ticks)
Tried aggregator 1 time.
Detecting symmetries...
Reduced MIP has 1409 rows, 2816 columns, and 17516 nonzeros.
Reduced MIP has 2816 binaries, 0 generals, 0 SOSs, and 0 indicators.
Presolve time = 0.01 sec. (10.23 ticks)
Probing time = 0.00 sec. (2.70 ticks)
Clique table members: 702.
MIP emphasis: balance optimality and feasibility.
MIP search method: dynamic search.
Parallel mode: none, using 1 thread.
Root relaxation solution time = 0.01 sec. (17.70 ticks)

        Nodes                                         Cuts/
   Node  Left     Objective  IInf  Best Integer    Best Bound    ItCnt     Gap

      0     0        0.0000   101                      0.0000      479         
*     0+    0                            0.0000        0.0000             0.00%
      0     0        cutoff              0.0000        0.0000      479    0.00%
Elapsed time = 0.07 sec. (78.37 ticks, tree = 0.01 MB, solutions = 1)

Root node processing (before b&c):
  Real time             =    0.07 sec. (78.50 ticks)
Sequential b&c:
  Real time             =    0.00 sec. (0.00 ticks)
                          ------------
Total (root+branch&cut) =    0.07 sec. (78.50 ticks)
Version identifier: 22.1.1.0 | 2022-11-28 | 9160aff4d
CPXPARAM_Threads                                 1
CPXPARAM_MIP_Strategy_VariableSelect             3
CPXPARAM_TimeLimit                               599.80505892999997
Tried aggregator 1 time.
MIP Presolve eliminated 721 rows and 1420 columns.
Reduced MIP has 1421 rows, 2840 columns, and 17666 nonzeros.
Reduced MIP has 2840 binaries, 0 generals, 0 SOSs, and 0 indicators.
Presolve time = 0.01 sec. (9.98 ticks)
Probing time = 0.00 sec. (2.70 ticks)
Tried aggregator 1 time.
Detecting symmetries...
Reduced MIP has 1421 rows, 2840 columns, and 17666 nonzeros.
Reduced MIP has 2840 binaries, 0 generals, 0 SOSs, and 0 indicators.
Presolve time = 0.01 sec. (10.31 ticks)
Probing time = 0.00 sec. (2.70 ticks)
Clique table members: 708.
MIP emphasis: balance optimality and feasibility.
MIP search method: dynamic search.
Parallel mode: none, using 1 thread.
Root relaxation solution time = 0.01 sec. (18.03 ticks)

        Nodes                                         Cuts/
   Node  Left     Objective  IInf  Best Integer    Best Bound    ItCnt     Gap

      0     0        0.0000    94                      0.0000      489         
*     0+    0                            0.0000        0.0000             0.00%
      0     0        cutoff              0.0000        0.0000      489    0.00%
Elapsed time = 0.08 sec. (100.12 ticks, tree = 0.01 MB, solutions = 1)

Root node processing (before b&c):
  Real time             =    0.08 sec. (100.24 ticks)
Sequential b&c:
  Real time             =    0.00 sec. (0.00 ticks)
                          ------------
Total (root+branch&cut) =    0.08 sec. (100.24 ticks)
Version identifier: 22.1.1.0 | 2022-11-28 | 9160aff4d
CPXPARAM_Threads                                 1
CPXPARAM_MIP_Strategy_VariableSelect             3
CPXPARAM_TimeLimit                               599.714796471
Tried aggregator 1 time.
MIP Presolve eliminated 723 rows and 1424 columns.
Reduced MIP has 1425 rows, 2848 columns, and 17716 nonzeros.
Reduced MIP has 2848 binaries, 0 generals, 0 SOSs, and 0 indicators.
Presolve time = 0.01 sec. (10.02 ticks)
Probing time = 0.00 sec. (2.71 ticks)
Tried aggregator 1 time.
Detecting symmetries...
Reduced MIP has 1425 rows, 2848 columns, and 17716 nonzeros.
Reduced MIP has 2848 binaries, 0 generals, 0 SOSs, and 0 indicators.
Presolve time = 0.01 sec. (10.35 ticks)
Probing time = 0.00 sec. (2.71 ticks)
Clique table members: 710.
MIP emphasis: balance optimality and feasibility.
MIP search method: dynamic search.
Parallel mode: none, using 1 thread.
Root relaxation solution time = 0.01 sec. (20.22 ticks)

        Nodes                                         Cuts/
   Node  Left     Objective  IInf  Best Integer    Best Bound    ItCnt     Gap

      0     0        0.0000   107                      0.0000      517         
*     0+    0                            0.0000        0.0000             0.00%
      0     0        cutoff              0.0000        0.0000      517    0.00%
Elapsed time = 0.09 sec. (109.50 ticks, tree = 0.01 MB, solutions = 1)

Root node processing (before b&c):
  Real time             =    0.09 sec. (109.63 ticks)
Sequential b&c:
  Real time             =    0.00 sec. (0.00 ticks)
                          ------------
Total (root+branch&cut) =    0.09 sec. (109.63 ticks)
Version identifier: 22.1.1.0 | 2022-11-28 | 9160aff4d
CPXPARAM_Threads                                 1
CPXPARAM_MIP_Strategy_VariableSelect             3
CPXPARAM_TimeLimit                               599.61598178899999
Tried aggregator 1 time.
MIP Presolve eliminated 725 rows and 1428 columns.
Reduced MIP has 1429 rows, 2856 columns, and 17766 nonzeros.
Reduced MIP has 2856 binaries, 0 generals, 0 SOSs, and 0 indicators.
Presolve time = 0.01 sec. (10.05 ticks)
Probing time = 0.00 sec. (2.71 ticks)
Tried aggregator 1 time.
Detecting symmetries...
Reduced MIP has 1429 rows, 2856 columns, and 17766 nonzeros.
Reduced MIP has 2856 binaries, 0 generals, 0 SOSs, and 0 indicators.
Presolve time = 0.01 sec. (10.38 ticks)
Probing time = 0.00 sec. (2.71 ticks)
Clique table members: 712.
MIP emphasis: balance optimality and feasibility.
MIP search method: dynamic search.
Parallel mode: none, using 1 thread.
Root relaxation solution time = 0.01 sec. (17.27 ticks)

        Nodes                                         Cuts/
   Node  Left     Objective  IInf  Best Integer    Best Bound    ItCnt     Gap

*     0     0      integral     0        0.0000        0.0000      418    0.00%
Elapsed time = 0.05 sec. (67.91 ticks, tree = 0.00 MB, solutions = 1)

Root node processing (before b&c):
  Real time             =    0.05 sec. (68.03 ticks)
Sequential b&c:
  Real time             =    0.00 sec. (0.00 ticks)
                          ------------
Total (root+branch&cut) =    0.05 sec. (68.03 ticks)
Primal:	357
Dual:	357
Status:	Optimal
Time:	0.447846
Sequence:
	9
	9
	5
	9
	4
	9
	9
	9
	9
	9
	9
	9
	9
	9
	9
	9
	9
	9
	9
	9
	9
	5
	9
	4
	9
	9
	9
	9
	9
	9
	9
	9
	5
	9
	9
	5
	9
	5
	9
	9
	9
	9
	9
	9
	9
	9
	5
	9
	9
	9
	9
	9
	9
	9
	9
	5
	9
	9
	9
	9
	4
	5
	9
	9
	9
	9
	9
	9
	9
	9
	9
	9
	9
	9
	9
	9
	5
	9
	9
	9
	5
	9
	9
	9
	9
	9
	5
	9
	9
	4
	9
	9
	9
	9
	5
	9
	5
	9
	4
	9
	9
	10
	0
	9
	4
	5
	0
	1
	4
	0
	9
	5
	0
	4
	1
	5
	2
	5
	5
	2
	5
	4
	0
	10
	4
	5
	0
	5
	9
	10
	0
	5
	9
	8
	1
	4
	9
	5
	0
	4
	4
	0
	4
	4
	1
	0
	4
	1
	5
	9
	8
	10
	5
	0
	9
	10
	9
	10
	0
	5
	9
	0
	4
	10
	0
	1
	9
	5
	0
	1
	4
	0
	9
	1
	4
	4
	0
	5
	4
	0
	4
	9
	5
	4
	0
	9
	1
	0
	4
	5
	0
	4
	5
	0
	1
	4
	0
	9
	1
	0
	5
	4
	0
	5
	9
	5
	0
	4
	4
	9
	0
	5
	9
	4
	0
	5
	9
	1
	0
	9
	5
	0
	5
	4
	0
	4
	10
	4
	0
	5
	1
	9
	0
	5
	4
	1
	0
	5
	9
	5
	0
	4
	10
	10
	5
	4
	0
	1
	5
	9
	4
	0
	5
	9
	0
	5
	9
	5
	8
	10
	10
	0
	4
	9
	0
	5
	5
	9
	0
	5
	5
	9
	0
	10
	5
	9
	0
	1
	9
	5
	0
	9
	5
	0
	1
	4
	1
	5
	2
	1
	5
	4
	9
	0
	1
	4
	0
	5
	4
	0
	5
	4
	0
	1
	4
	0
	5
	4
	0
	5
	4
	0
	5
	4
	1
	0
	9
	5
	4
	0
	1
	4
	1
	4
	5
	0
	4
	5
	0
	1
	4
	0
	10
	4
	4
	9
	0
	5
	10
	8
	5
	1
	4
	5
	1
	0
	4
	1
	1
	0
	4
	1
	0
	4
	5
	1
	0
